(set-info :smt-lib-version 2.6)
(set-logic UFNIA)
(set-info :source |
Generated by: Geoff Sutcliffe
Generated on: 2026-03-11
Generator: TPTPWorld
Application: Benchmarking automated theorem provers
Time limit: 120.0

These benchmarks are translations from the TPTP Library (Thousands of
Problems for Theorem Provers), see http://www.cs.miami.edu/~tptp/

The TPTP is maintained by Geoff Sutcliffe, and he contributed this
selection of benchmarks to SMT-LIB.  They were exported from the
v9.2.1 realease of TPTP.
|)
(set-info :category "industrial")
(set-info :status "unknown")
; SZS status Success
(declare-sort $$unsorted 0)
(declare-sort tptp.uni 0)
(declare-sort tptp.ty 0)
(declare-fun tptp.sort (tptp.ty tptp.uni) Bool)
(declare-fun tptp.witness (tptp.ty) tptp.uni)
(assert (forall ((A tptp.ty)) (tptp.sort A (tptp.witness A))))
(declare-fun tptp.int () tptp.ty)
(declare-fun tptp.real () tptp.ty)
(declare-sort tptp.bool 0)
(declare-fun tptp.bool1 () tptp.ty)
(declare-fun tptp.true () tptp.bool)
(declare-fun tptp.false () tptp.bool)
(declare-fun tptp.match_bool (tptp.ty tptp.bool tptp.uni tptp.uni) tptp.uni)
(assert (forall ((A tptp.ty) (X tptp.bool) (X1 tptp.uni) (X2 tptp.uni)) (tptp.sort A (tptp.match_bool A X X1 X2))))
(assert (forall ((A tptp.ty) (Z tptp.uni) (Z1 tptp.uni)) (=> (tptp.sort A Z) (= (tptp.match_bool A tptp.true Z Z1) Z))))
(assert (forall ((A tptp.ty) (Z tptp.uni) (Z1 tptp.uni)) (=> (tptp.sort A Z1) (= (tptp.match_bool A tptp.false Z Z1) Z1))))
(assert (not (= tptp.true tptp.false)))
(assert (forall ((U tptp.bool)) (or (= U tptp.true) (= U tptp.false))))
(declare-sort tptp.tuple0 0)
(declare-fun tptp.tuple01 () tptp.ty)
(declare-fun tptp.tuple02 () tptp.tuple0)
(assert (forall ((U tptp.tuple0)) (= U tptp.tuple02)))
(declare-fun tptp.qtmark () tptp.ty)
(assert (forall ((X Int) (Y Int) (Z Int)) (=> (<= X Y) (=> (<= 0 Z) (<= (* X Z) (* Y Z))))))
(declare-fun tptp.ref (tptp.ty) tptp.ty)
(declare-fun tptp.mk_ref (tptp.ty tptp.uni) tptp.uni)
(assert (forall ((A tptp.ty) (X tptp.uni)) (tptp.sort (tptp.ref A) (tptp.mk_ref A X))))
(declare-fun tptp.contents (tptp.ty tptp.uni) tptp.uni)
(assert (forall ((A tptp.ty) (X tptp.uni)) (tptp.sort A (tptp.contents A X))))
(assert (forall ((A tptp.ty) (U tptp.uni)) (=> (tptp.sort A U) (= (tptp.contents A (tptp.mk_ref A U)) U))))
(assert (forall ((A tptp.ty) (U tptp.uni)) (=> (tptp.sort (tptp.ref A) U) (= U (tptp.mk_ref A (tptp.contents A U))))))
(declare-fun tptp.abs (Int) Int)
(assert (forall ((X Int)) (let ((_let_1 (tptp.abs X))) (let ((_let_2 (<= 0 X))) (and (=> _let_2 (= _let_1 X)) (=> (not _let_2) (= _let_1 (- X))))))))
(assert (forall ((X Int) (Y Int)) (= (<= (tptp.abs X) Y) (and (<= (- Y) X) (<= X Y)))))
(assert (forall ((X Int)) (<= 0 (tptp.abs X))))
(declare-fun tptp.div (Int Int) Int)
(declare-fun tptp.mod (Int Int) Int)
(assert (forall ((X Int) (Y Int)) (=> (not (= Y 0)) (= X (+ (* Y (tptp.div X Y)) (tptp.mod X Y))))))
(assert (forall ((X Int) (Y Int)) (let ((_let_1 (tptp.div X Y))) (=> (and (<= 0 X) (< 0 Y)) (and (<= 0 _let_1) (<= _let_1 X))))))
(assert (forall ((X Int) (Y Int)) (let ((_let_1 (tptp.abs Y))) (let ((_let_2 (tptp.mod X Y))) (=> (not (= Y 0)) (and (< (- _let_1) _let_2) (< _let_2 _let_1)))))))
(assert (forall ((X Int) (Y Int)) (=> (and (<= 0 X) (< 0 Y)) (<= 0 (tptp.div X Y)))))
(assert (forall ((X Int) (Y Int)) (=> (and (<= X 0) (< 0 Y)) (<= (tptp.div X Y) 0))))
(assert (forall ((X Int) (Y Int)) (=> (and (<= 0 X) (not (= Y 0))) (<= 0 (tptp.mod X Y)))))
(assert (forall ((X Int) (Y Int)) (=> (and (<= X 0) (not (= Y 0))) (<= (tptp.mod X Y) 0))))
(assert (forall ((X Int) (Y Int)) (=> (not (= Y 0)) (<= (tptp.abs (* (tptp.div X Y) Y)) (tptp.abs X)))))
(assert (forall ((X Int)) (= (tptp.div X 1) X)))
(assert (forall ((X Int)) (= (tptp.mod X 1) 0)))
(assert (forall ((X Int) (Y Int)) (=> (and (<= 0 X) (< X Y)) (= (tptp.div X Y) 0))))
(assert (forall ((X Int) (Y Int)) (=> (and (<= 0 X) (< X Y)) (= (tptp.mod X Y) X))))
(assert (forall ((X Int) (Y Int) (Z Int)) (=> (and (< 0 X) (<= 0 Y) (<= 0 Z)) (= (tptp.div (+ (* X Y) Z) X) (+ Y (tptp.div Z X))))))
(assert (forall ((X Int) (Y Int) (Z Int)) (=> (and (< 0 X) (<= 0 Y) (<= 0 Z)) (= (tptp.mod (+ (* X Y) Z) X) (tptp.mod Z X)))))
(declare-fun tptp.map (tptp.ty tptp.ty) tptp.ty)
(declare-fun tptp.get (tptp.ty tptp.ty tptp.uni tptp.uni) tptp.uni)
(assert (forall ((A tptp.ty) (B tptp.ty) (X tptp.uni) (X1 tptp.uni)) (tptp.sort B (tptp.get B A X X1))))
(declare-fun tptp.set (tptp.ty tptp.ty tptp.uni tptp.uni tptp.uni) tptp.uni)
(assert (forall ((A tptp.ty) (B tptp.ty) (X tptp.uni) (X1 tptp.uni) (X2 tptp.uni)) (tptp.sort (tptp.map A B) (tptp.set B A X X1 X2))))
(assert (forall ((A tptp.ty) (B tptp.ty) (M tptp.uni) (A1 tptp.uni) (A2 tptp.uni) (B1 tptp.uni)) (=> (tptp.sort B B1) (=> (= A1 A2) (= (tptp.get B A (tptp.set B A M A1 B1) A2) B1)))))
(assert (forall ((A tptp.ty) (B tptp.ty) (M tptp.uni) (A1 tptp.uni) (A2 tptp.uni)) (=> (tptp.sort A A1) (=> (tptp.sort A A2) (forall ((B1 tptp.uni)) (=> (not (= A1 A2)) (= (tptp.get B A (tptp.set B A M A1 B1) A2) (tptp.get B A M A2))))))))
(declare-fun tptp.const (tptp.ty tptp.ty tptp.uni) tptp.uni)
(assert (forall ((A tptp.ty) (B tptp.ty) (X tptp.uni)) (tptp.sort (tptp.map A B) (tptp.const B A X))))
(assert (forall ((A tptp.ty) (B tptp.ty) (B1 tptp.uni) (A1 tptp.uni)) (=> (tptp.sort B B1) (= (tptp.get B A (tptp.const B A B1) A1) B1))))
(declare-fun tptp.array (tptp.ty) tptp.ty)
(declare-fun tptp.mk_array (tptp.ty Int tptp.uni) tptp.uni)
(assert (forall ((A tptp.ty) (X Int) (X1 tptp.uni)) (tptp.sort (tptp.array A) (tptp.mk_array A X X1))))
(declare-fun tptp.length (tptp.ty tptp.uni) Int)
(assert (forall ((A tptp.ty) (U Int) (U1 tptp.uni)) (= (tptp.length A (tptp.mk_array A U U1)) U)))
(declare-fun tptp.elts (tptp.ty tptp.uni) tptp.uni)
(assert (forall ((A tptp.ty) (X tptp.uni)) (tptp.sort (tptp.map tptp.int A) (tptp.elts A X))))
(assert (forall ((A tptp.ty) (U Int) (U1 tptp.uni)) (=> (tptp.sort (tptp.map tptp.int A) U1) (= (tptp.elts A (tptp.mk_array A U U1)) U1))))
(assert (forall ((A tptp.ty) (U tptp.uni)) (= U (tptp.mk_array A (tptp.length A U) (tptp.elts A U)))))
(declare-fun tptp.get1 (tptp.ty tptp.uni Int) tptp.uni)
(assert (forall ((A tptp.ty) (X tptp.uni) (X1 Int)) (tptp.sort A (tptp.get1 A X X1))))
(declare-fun tptp.t2tb (Int) tptp.uni)
(assert (forall ((X Int)) (tptp.sort tptp.int (tptp.t2tb X))))
(declare-fun tptp.tb2t (tptp.uni) Int)
(assert (forall ((I Int)) (= (tptp.tb2t (tptp.t2tb I)) I)))
(assert (forall ((J tptp.uni)) (= (tptp.t2tb (tptp.tb2t J)) J)))
(assert (forall ((A tptp.ty) (A1 tptp.uni) (I Int)) (= (tptp.get1 A A1 I) (tptp.get A tptp.int (tptp.elts A A1) (tptp.t2tb I)))))
(declare-fun tptp.set1 (tptp.ty tptp.uni Int tptp.uni) tptp.uni)
(assert (forall ((A tptp.ty) (X tptp.uni) (X1 Int) (X2 tptp.uni)) (tptp.sort (tptp.array A) (tptp.set1 A X X1 X2))))
(assert (forall ((A tptp.ty) (A1 tptp.uni) (I Int) (V tptp.uni)) (= (tptp.set1 A A1 I V) (tptp.mk_array A (tptp.length A A1) (tptp.set A tptp.int (tptp.elts A A1) (tptp.t2tb I) V)))))
(declare-fun tptp.make (tptp.ty Int tptp.uni) tptp.uni)
(assert (forall ((A tptp.ty) (X Int) (X1 tptp.uni)) (tptp.sort (tptp.array A) (tptp.make A X X1))))
(assert (forall ((A tptp.ty) (N Int) (V tptp.uni)) (= (tptp.make A N V) (tptp.mk_array A N (tptp.const A tptp.int V)))))
(declare-sort tptp.map_int_int 0)
(declare-fun tptp.sum (tptp.map_int_int Int Int) Int)
(assert (forall ((C tptp.map_int_int) (I Int) (J Int)) (=> (<= J I) (= (tptp.sum C I J) 0))))
(declare-fun tptp.t2tb1 (tptp.map_int_int) tptp.uni)
(assert (forall ((X tptp.map_int_int)) (tptp.sort (tptp.map tptp.int tptp.int) (tptp.t2tb1 X))))
(declare-fun tptp.tb2t1 (tptp.uni) tptp.map_int_int)
(assert (forall ((I tptp.map_int_int)) (= (tptp.tb2t1 (tptp.t2tb1 I)) I)))
(assert (forall ((J tptp.uni)) (= (tptp.t2tb1 (tptp.tb2t1 J)) J)))
(assert (forall ((C tptp.map_int_int) (I Int) (J Int)) (=> (< I J) (= (tptp.sum C I J) (+ (tptp.tb2t (tptp.get tptp.int tptp.int (tptp.t2tb1 C) (tptp.t2tb I))) (tptp.sum C (+ I 1) J))))))
(assert (forall ((C tptp.map_int_int) (I Int) (J Int)) (let ((_let_1 (- J 1))) (=> (< I J) (= (tptp.sum C I J) (+ (tptp.sum C I _let_1) (tptp.tb2t (tptp.get tptp.int tptp.int (tptp.t2tb1 C) (tptp.t2tb _let_1)))))))))
(assert (forall ((C tptp.map_int_int) (I Int) (K Int) (J Int)) (=> (and (<= I K) (<= K J)) (= (tptp.sum C I J) (+ (tptp.sum C I K) (tptp.sum C K J))))))
(assert (forall ((C1 tptp.map_int_int) (C2 tptp.map_int_int) (I Int) (J Int)) (=> (forall ((K Int)) (let ((_let_1 (tptp.t2tb K))) (=> (and (<= I K) (< K J)) (= (tptp.tb2t (tptp.get tptp.int tptp.int (tptp.t2tb1 C1) _let_1)) (tptp.tb2t (tptp.get tptp.int tptp.int (tptp.t2tb1 C2) _let_1)))))) (= (tptp.sum C1 I J) (tptp.sum C2 I J)))))
(declare-sort tptp.array_int 0)
(declare-fun tptp.sum1 (tptp.array_int Int Int) Int)
(declare-fun tptp.t2tb2 (tptp.array_int) tptp.uni)
(assert (forall ((X tptp.array_int)) (tptp.sort (tptp.array tptp.int) (tptp.t2tb2 X))))
(declare-fun tptp.tb2t2 (tptp.uni) tptp.array_int)
(assert (forall ((I tptp.array_int)) (= (tptp.tb2t2 (tptp.t2tb2 I)) I)))
(assert (forall ((J tptp.uni)) (= (tptp.t2tb2 (tptp.tb2t2 J)) J)))
(assert (forall ((A tptp.array_int) (L Int) (H Int)) (= (tptp.sum1 A L H) (tptp.sum (tptp.tb2t1 (tptp.elts tptp.int (tptp.t2tb2 A))) L H))))
(declare-fun tptp.maxsublo (tptp.array_int Int Int) Bool)
(assert (forall ((A tptp.array_int) (Maxlo Int) (S Int)) (= (tptp.maxsublo A Maxlo S) (forall ((L Int) (H Int)) (=> (and (<= 0 L) (< L Maxlo)) (=> (and (<= L H) (<= H (tptp.length tptp.int (tptp.t2tb2 A)))) (<= (tptp.sum1 A L H) S)))))))
(declare-fun tptp.maxsub (tptp.array_int Int) Bool)
(assert (forall ((A tptp.array_int) (S Int)) (= (tptp.maxsub A S) (forall ((L Int) (H Int)) (=> (and (<= 0 L) (<= L H) (<= H (tptp.length tptp.int (tptp.t2tb2 A)))) (<= (tptp.sum1 A L H) S))))))
(assert (not (forall ((A Int) (A1 tptp.map_int_int) (L Int) (H Int)) (=> (and (<= 0 A) (<= 0 L) (<= L H) (<= H A)) (=> (not (= H L)) (forall ((Lo Int)) (=> (= Lo (+ L (tptp.div (- H L) 2))) (forall ((Hi Int)) (let ((_let_1 (+ L (tptp.div (- H L) 2)))) (=> (= Hi _let_1) (=> (<= L (- _let_1 1)) (forall ((S Int) (Ms Int) (Lo1 Int)) (let ((_let_1 (+ L (tptp.div (- H L) 2)))) (=> (and (<= L Lo1) (<= Lo1 _let_1) (= _let_1 Hi) (= Ms (tptp.sum A1 Lo1 Hi)) (forall ((Lqt Int)) (let ((_let_1 (+ L (tptp.div (- H L) 2)))) (=> (and (< (- L 1) Lqt) (<= Lqt _let_1)) (<= (tptp.sum A1 Lqt _let_1) Ms)))) (= S (tptp.sum A1 (+ (- L 1) 1) _let_1))) (=> (forall ((Lqt Int)) (let ((_let_1 (+ L (tptp.div (- H L) 2)))) (=> (and (<= L Lqt) (<= Lqt _let_1)) (<= (tptp.sum A1 Lqt _let_1) (tptp.sum A1 Lo1 _let_1))))) (forall ((S1 Int)) (=> (= S1 Ms) (=> (<= (+ L (tptp.div (- H L) 2)) (- H 1)) (forall ((Lqt Int) (Hqt Int)) (let ((_let_1 (+ L (tptp.div (- H L) 2)))) (=> (and (<= L Lqt) (<= Lqt _let_1) (<= _let_1 Hqt) (<= Hqt _let_1)) (<= (tptp.sum A1 Lqt Hqt) Ms))))))))))))))))))))))
(check-sat)
